%%%%%%%%%%%%%%%%%%%%%%%%%%%%%%%
%   03.1 
%%%%%%%%%%%%%%%%%%%%%%%%%%%%%%%
% max_t = 8;
% n = 7;
% M = 
% [| 1, 0, 1, 0, 1, 0, 1
%  | 1, 1, 0, 1, 1, 1, 0
%  | 1, 0, 0, 0, 0, 1, 0
%  | 0, 1, 0, 1, 0, 0, 1
%  | 0, 0, 1, 0, 1, 0, 1
%  | 0, 0, 1, 0, 1, 1, 0
%  | 1, 0, 1, 1, 0, 0, 0
%  |];
 
%%%%%%%%%%%%%%%%%%%%%%%%%%%%%%%
%   03.2
%%%%%%%%%%%%%%%%%%%%%%%%%%%%%%%
% max_t = 8;
% n = 6;
% M = 
% [| 0, 1, 1, 1, 1, 1
%  | 0, 0, 1, 1, 0, 0
%  | 1, 1, 1, 0, 0, 0
%  | 1, 1, 0, 0, 1, 1
%  | 0, 1, 1, 1, 1, 0
%  | 0, 0, 0, 0, 1, 1
%  |];

%%%%%%%%%%%%%%%%%%%%%%%%%%%%%%%
%   03.3
%%%%%%%%%%%%%%%%%%%%%%%%%%%%%%%
% max_t = 12;
% n = 8;
% M = 
% [| 1, 1, 0, 1, 1, 0, 1, 0
%  | 1, 0, 0, 0, 1, 1, 0, 1
%  | 1, 0, 1, 1, 0, 1, 0, 1
%  | 0, 0, 1, 0, 1, 1, 1, 0
%  | 0, 0, 0, 0, 0, 0, 1, 0
%  | 0, 0, 0, 1, 0, 1, 1, 1
%  | 0, 1, 1, 0, 1, 1, 1, 1
%  | 1, 1, 1, 1, 1, 0, 1, 1
%  |];

%%%%%%%%%%%%%%%%%%%%%%%%%%%%%%%
%   03.4
%%%%%%%%%%%%%%%%%%%%%%%%%%%%%%%
% max_t = 8;
% n = 9;
% M = 
% [| 1, 1, 0, 1, 1, 0, 1, 0, 1
%  | 0, 0, 0, 1, 1, 0, 1, 1, 0
%  | 1, 1, 0, 1, 0, 1, 0, 0, 1
%  | 0, 1, 1, 1, 0, 0, 0, 0, 0
%  | 0, 0, 1, 0, 0, 0, 0, 1, 0
%  | 1, 1, 1, 0, 1, 1, 0, 1, 1
%  | 1, 1, 1, 1, 1, 1, 1, 0, 1
%  | 1, 1, 1, 0, 0, 0, 1, 0, 1
%  | 0, 1, 0, 0, 0, 1, 0, 0, 1
%  |];
